
Gurobi 9.1.2 (win64, gurobi_cl) logging started Thu Sep 19 15:47:37 2024


Gurobi 9.1.2 (win64, gurobi_cl) logging started Thu Sep 19 15:47:48 2024


Gurobi 9.1.2 (win64, gurobi_cl) logging started Thu Sep 19 15:47:58 2024


Gurobi 9.1.2 (win64, gurobi_cl) logging started Thu Sep 19 15:48:15 2024


Gurobi 9.1.2 (win64, gurobi_cl) logging started Thu Sep 19 15:49:05 2024


Gurobi 9.1.2 (win64, gurobi_cl) logging started Thu Sep 19 15:49:11 2024


Gurobi 9.1.2 (win64, gurobi_cl) logging started Thu Sep 19 15:49:17 2024


Gurobi 9.1.2 (win64, gurobi_cl) logging started Thu Sep 19 15:49:33 2024


Gurobi 9.1.2 (win64, gurobi_cl) logging started Thu Sep 19 15:51:20 2024


Gurobi 9.1.2 (win64, gurobi_cl) logging started Thu Sep 19 15:52:03 2024


Gurobi 9.1.2 (win64, gurobi_cl) logging started Thu Sep 19 15:52:11 2024


Gurobi 9.1.2 (win64, gurobi_cl) logging started Thu Sep 19 15:52:47 2024


Gurobi 9.1.2 (win64, gurobi_cl) logging started Thu Sep 19 15:53:47 2024


Gurobi 9.1.2 (win64, gurobi_cl) logging started Thu Sep 19 15:53:56 2024


Gurobi 9.1.2 (win64, gurobi_cl) logging started Thu Sep 19 15:56:53 2024


Gurobi 9.1.2 (win64, gurobi_cl) logging started Thu Sep 19 15:57:06 2024


Gurobi 9.1.2 (win64, gurobi_cl) logging started Thu Sep 19 15:57:13 2024


Gurobi 9.1.2 (win64, gurobi_cl) logging started Thu Sep 19 15:58:11 2024


Gurobi 9.1.2 (win64, gurobi_cl) logging started Thu Sep 19 16:00:09 2024


Gurobi 9.1.2 (win64, gurobi_cl) logging started Thu Sep 19 16:00:25 2024


Gurobi 9.1.2 (win64, gurobi_cl) logging started Thu Sep 19 16:01:29 2024


Gurobi 9.1.2 (win64, gurobi_cl) logging started Thu Sep 19 16:01:40 2024


Gurobi 9.1.2 (win64, gurobi_cl) logging started Thu Sep 19 16:02:20 2024


Gurobi 9.1.2 (win64, gurobi_cl) logging started Thu Sep 19 16:02:27 2024


Gurobi 9.1.2 (win64, gurobi_cl) logging started Thu Sep 19 16:03:03 2024


Gurobi 9.1.2 (win64, gurobi_cl) logging started Thu Sep 19 16:03:10 2024


Gurobi 9.1.2 (win64, gurobi_cl) logging started Thu Sep 19 16:03:35 2024


Gurobi 9.1.2 (win64, gurobi_cl) logging started Thu Sep 19 16:03:59 2024


Gurobi 9.1.2 (win64, gurobi_cl) logging started Thu Sep 19 16:08:16 2024


Gurobi 9.1.2 (win64, gurobi_cl) logging started Thu Sep 19 16:08:33 2024


Gurobi 9.1.2 (win64, gurobi_cl) logging started Thu Sep 19 16:08:43 2024


Gurobi 9.1.2 (win64, gurobi_cl) logging started Thu Sep 19 16:09:02 2024


Gurobi 9.1.2 (win64, gurobi_cl) logging started Thu Sep 19 16:13:21 2024


Gurobi 9.1.2 (win64, gurobi_cl) logging started Thu Sep 19 16:15:19 2024


Gurobi 9.1.2 (win64, gurobi_cl) logging started Thu Sep 19 16:15:37 2024


Gurobi 9.1.2 (win64, gurobi_cl) logging started Thu Sep 19 16:24:21 2024


Gurobi 9.1.2 (win64, gurobi_cl) logging started Thu Sep 19 16:24:46 2024


Gurobi 9.1.2 (win64, gurobi_cl) logging started Thu Sep 19 17:07:45 2024


Gurobi 9.1.2 (win64, gurobi_cl) logging started Thu Sep 19 17:08:47 2024


Gurobi 9.1.2 (win64, gurobi_cl) logging started Thu Sep 19 17:09:36 2024


Gurobi 9.1.2 (win64, gurobi_cl) logging started Thu Sep 19 17:11:21 2024


Gurobi 9.1.2 (win64, gurobi_cl) logging started Thu Sep 19 17:12:55 2024


Gurobi 9.1.2 (win64, gurobi_cl) logging started Thu Sep 19 17:13:57 2024


Gurobi 9.1.2 (win64, gurobi_cl) logging started Thu Sep 19 17:20:57 2024

